2 100 531 80
0 40.0 50.0 0.0 0.0 0 240
2 25.0 85.0 10.0 20.0 125 191 1 5
3 22.0 75.0 10.0 30.0 32 97 2 5
4 22.0 85.0 10.0 10.0 101 146 3 5
5 20.0 80.0 10.0 40.0 71 193 4 5
6 20.0 85.0 10.0 20.0 40 113 5 5
7 18.0 75.0 10.0 20.0 55 164 6 10
8 15.0 75.0 10.0 20.0 69 118 7 10
9 15.0 80.0 10.0 10.0 56 155 8 10
10 10.0 35.0 10.0 20.0 51 160 9 10
11 10.0 40.0 10.0 30.0 90 177 10 10
12 8.0 40.0 10.0 40.0 33 152 11 15
13 8.0 45.0 10.0 20.0 49 108 12 15
14 5.0 35.0 10.0 10.0 62 191 13 15
15 5.0 45.0 10.0 10.0 35 117 14 15
16 2.0 40.0 10.0 20.0 39 161 15 15
17 0.0 40.0 10.0 20.0 59 114 16 5
18 0.0 45.0 10.0 20.0 60 189 17 5
19 44.0 5.0 10.0 20.0 79 124 18 5
20 42.0 10.0 10.0 40.0 58 115 19 5
21 42.0 15.0 10.0 10.0 111 162 20 5
22 40.0 5.0 10.0 10.0 52 111 21 10
23 40.0 15.0 10.0 40.0 55 158 22 10
24 38.0 5.0 10.0 30.0 45 164 23 10
25 38.0 15.0 10.0 10.0 128 194 24 10
26 35.0 5.0 10.0 20.0 54 184 25 10
27 95.0 30.0 10.0 30.0 105 154 26 15
28 95.0 35.0 10.0 20.0 57 172 27 15
29 92.0 30.0 10.0 10.0 55 120 28 15
30 90.0 35.0 10.0 10.0 52 112 29 15
31 88.0 30.0 10.0 10.0 52 159 30 15
32 88.0 35.0 10.0 20.0 50 110 31 5
33 87.0 30.0 10.0 10.0 116 175 32 5
34 85.0 25.0 10.0 10.0 51 178 33 5
35 85.0 35.0 10.0 30.0 100 151 34 5
36 67.0 85.0 10.0 20.0 61 185 35 5
37 65.0 85.0 10.0 40.0 43 186 36 10
38 65.0 82.0 10.0 10.0 113 164 37 10
39 62.0 80.0 10.0 30.0 37 148 38 10
40 60.0 80.0 10.0 10.0 36 191 39 10
41 60.0 85.0 10.0 30.0 50 149 40 10
42 58.0 75.0 10.0 20.0 48 165 41 15
43 55.0 80.0 10.0 10.0 33 166 42 15
44 55.0 85.0 10.0 20.0 117 168 43 15
45 55.0 82.0 10.0 10.0 35 148 44 15
46 20.0 82.0 10.0 10.0 37 177 45 15
47 18.0 80.0 10.0 10.0 98 157 46 5
48 2.0 45.0 10.0 10.0 38 109 47 5
49 42.0 5.0 10.0 10.0 120 184 48 5
50 42.0 12.0 10.0 10.0 79 158 49 5
51 72.0 35.0 10.0 30.0 104 157 50 5
52 55.0 20.0 10.0 19.0 69 126 51 10
53 25.0 30.0 10.0 3.0 36 97 52 10
54 20.0 50.0 10.0 5.0 57 154 53 10
55 55.0 60.0 10.0 16.0 127 180 54 10
56 30.0 60.0 10.0 16.0 95 214 55 10
57 50.0 35.0 10.0 19.0 88 201 56 15
58 30.0 25.0 10.0 23.0 82 139 57 15
59 15.0 10.0 10.0 20.0 56 182 58 15
60 10.0 20.0 10.0 19.0 42 125 59 15
61 15.0 60.0 10.0 17.0 137 202 60 15
62 45.0 65.0 10.0 9.0 55 106 61 5
63 65.0 35.0 10.0 3.0 29 158 62 5
64 65.0 20.0 10.0 6.0 39 108 63 5
65 45.0 30.0 10.0 17.0 20 139 64 5
66 35.0 40.0 10.0 16.0 11 140 65 5
67 41.0 37.0 10.0 16.0 92 203 66 10
68 64.0 42.0 10.0 9.0 28 141 67 10
69 40.0 60.0 10.0 21.0 100 217 68 10
70 31.0 52.0 10.0 27.0 9 134 69 10
71 35.0 69.0 10.0 23.0 60 210 70 10
72 65.0 55.0 10.0 14.0 52 107 71 15
73 63.0 65.0 10.0 8.0 27 101 72 15
74 2.0 60.0 10.0 5.0 65 118 73 15
75 20.0 20.0 10.0 8.0 72 193 74 15
76 5.0 5.0 10.0 16.0 60 117 75 15
77 60.0 12.0 10.0 31.0 42 143 76 5
78 23.0 3.0 10.0 7.0 52 180 77 5
79 8.0 56.0 10.0 27.0 46 163 78 5
80 6.0 68.0 10.0 30.0 54 153 79 5
81 47.0 47.0 10.0 13.0 97 222 80 5
82 49.0 58.0 10.0 10.0 80 121 81 10
83 27.0 43.0 10.0 9.0 26 87 82 10
84 37.0 31.0 10.0 14.0 19 87 83 10
85 57.0 29.0 10.0 18.0 62 159 84 10
86 63.0 23.0 10.0 2.0 76 127 85 10
87 21.0 24.0 10.0 28.0 77 126 86 15
88 12.0 24.0 10.0 13.0 68 141 87 15
89 24.0 58.0 10.0 19.0 24 139 88 15
90 67.0 5.0 10.0 25.0 105 177 89 15
91 37.0 47.0 10.0 6.0 74 127 90 15
92 49.0 42.0 10.0 13.0 151 212 91 5
93 53.0 43.0 10.0 14.0 14 155 92 5
94 61.0 52.0 10.0 3.0 69 208 93 5
95 57.0 48.0 10.0 23.0 86 133 94 5
96 56.0 37.0 10.0 6.0 20 84 95 5
97 55.0 54.0 10.0 26.0 121 172 96 10
98 4.0 18.0 10.0 35.0 112 157 97 10
99 26.0 52.0 10.0 9.0 30 91 98 10
100 26.0 35.0 10.0 15.0 37 146 99 10
101 31.0 67.0 10.0 3.0 66 210 100 10